90
16
52
83
110
95
10
77
67
53
76
12
30
28
55
46
93
58
87
108
57
104
85
35
69
27
31
92
48
41
79
82
37
56
89
88
70
21
75
3
97
23
60
98
8
102
19
63
73
7
14
24
43
105
61
91
74
38
47
45
99
107
84
25
22
17
106
1
11
78
9
40
32
33
42
26
4
2
101
44
6
62
50
39
72
34
66
54
64
103
71
59
18
13
49
86
15
29
36
20
